
Gurobi 7.5.2 (win32, Python) logging started 08/27/18 12:52:52


Gurobi 7.5.2 (win32, Python) logging started 08/27/18 12:56:51

Academic license - for non-commercial use only

Gurobi 7.5.2 (win32, Python) logging started 08/29/18 13:01:00

Academic license - for non-commercial use only

Gurobi 7.5.2 (win32, Python) logging started 08/29/18 13:14:56

Academic license - for non-commercial use only

Gurobi 7.5.2 (win32, Python) logging started 08/29/18 13:20:23

Academic license - for non-commercial use only

Gurobi 7.5.2 (win32, Python) logging started 08/29/18 13:20:41

Academic license - for non-commercial use only

Gurobi 7.5.2 (win32, Python) logging started 08/29/18 13:21:42

Academic license - for non-commercial use only

Gurobi 7.5.2 (win32, Python) logging started 08/29/18 13:46:49

Academic license - for non-commercial use only

Gurobi 7.5.2 (win32, Python) logging started 08/29/18 13:47:44

Academic license - for non-commercial use only

Gurobi 7.5.2 (win32, Python) logging started 08/29/18 13:48:31

Academic license - for non-commercial use only

Gurobi 7.5.2 (win32, Python) logging started 08/29/18 13:50:30

Academic license - for non-commercial use only

Gurobi 7.5.2 (win32, Python) logging started 08/29/18 13:51:14

Academic license - for non-commercial use only

Gurobi 7.5.2 (win32, Python) logging started 08/30/18 11:23:40

Academic license - for non-commercial use only

Gurobi 7.5.2 (win32, Python) logging started 08/30/18 11:24:27

Academic license - for non-commercial use only

Gurobi 7.5.2 (win32, Python) logging started 08/30/18 11:25:04

Academic license - for non-commercial use only

Gurobi 7.5.2 (win32, Python) logging started 08/30/18 11:25:15

Academic license - for non-commercial use only

Gurobi 7.5.2 (win32, Python) logging started 08/30/18 11:51:18

Academic license - for non-commercial use only

Gurobi 7.5.2 (win32, Python) logging started 08/30/18 11:52:14

Academic license - for non-commercial use only

Gurobi 7.5.2 (win32, Python) logging started 08/30/18 11:54:44

Academic license - for non-commercial use only

Gurobi 7.5.2 (win32, Python) logging started 08/30/18 11:55:39

Academic license - for non-commercial use only

Gurobi 7.5.2 (win32, Python) logging started 08/30/18 11:57:05

Academic license - for non-commercial use only

Gurobi 7.5.2 (win32, Python) logging started 08/30/18 11:57:29

Academic license - for non-commercial use only

Gurobi 7.5.2 (win32, Python) logging started 08/30/18 11:59:30

Academic license - for non-commercial use only

Gurobi 7.5.2 (win32, Python) logging started 08/30/18 12:15:06

Academic license - for non-commercial use only

Gurobi 7.5.2 (win32, Python) logging started 08/30/18 12:17:32

Academic license - for non-commercial use only

Gurobi 7.5.2 (win32, Python) logging started 08/30/18 12:34:59

Academic license - for non-commercial use only

Gurobi 7.5.2 (win32, Python) logging started 08/30/18 12:38:55

Academic license - for non-commercial use only

Gurobi 7.5.2 (win32, Python) logging started 08/30/18 12:40:42

Academic license - for non-commercial use only

Gurobi 7.5.2 (win32, Python) logging started 08/30/18 12:40:56

Academic license - for non-commercial use only

Gurobi 7.5.2 (win32, Python) logging started 08/30/18 12:45:09

Academic license - for non-commercial use only

Gurobi 7.5.2 (win32, Python) logging started 08/30/18 13:24:56

Academic license - for non-commercial use only

Gurobi 7.5.2 (win32, Python) logging started 09/07/18 11:40:05

Academic license - for non-commercial use only

Gurobi 7.5.2 (win32, Python) logging started 09/07/18 11:41:54

Academic license - for non-commercial use only

Gurobi 7.5.2 (win32, Python) logging started 09/07/18 11:43:09

Academic license - for non-commercial use only

Gurobi 7.5.2 (win32, Python) logging started 09/07/18 11:43:46

Academic license - for non-commercial use only

Gurobi 7.5.2 (win32, Python) logging started 09/07/18 11:44:48

Academic license - for non-commercial use only

Gurobi 7.5.2 (win32, Python) logging started 09/07/18 11:46:01

Academic license - for non-commercial use only

Gurobi 7.5.2 (win32, Python) logging started 09/07/18 11:47:20

Academic license - for non-commercial use only

Gurobi 7.5.2 (win32, Python) logging started 09/07/18 11:47:57

Academic license - for non-commercial use only

Gurobi 7.5.2 (win32, Python) logging started 09/07/18 11:48:13

Academic license - for non-commercial use only

Gurobi 7.5.2 (win32, Python) logging started 09/07/18 11:48:43

Academic license - for non-commercial use only

Gurobi 7.5.2 (win32, Python) logging started 09/07/18 11:49:15

Academic license - for non-commercial use only

Gurobi 7.5.2 (win32, Python) logging started 09/07/18 11:51:13

Academic license - for non-commercial use only

Gurobi 7.5.2 (win32, Python) logging started 09/07/18 11:54:12

Academic license - for non-commercial use only

Gurobi 7.5.2 (win32, Python) logging started 09/07/18 11:55:09

Academic license - for non-commercial use only

Gurobi 7.5.2 (win32, Python) logging started 09/07/18 11:55:57

Academic license - for non-commercial use only

Gurobi 7.5.2 (win32, Python) logging started 09/07/18 11:56:45

Academic license - for non-commercial use only

Gurobi 7.5.2 (win32, Python) logging started 09/07/18 11:56:59

Academic license - for non-commercial use only

Gurobi 7.5.2 (win32, Python) logging started 09/07/18 11:59:23

Academic license - for non-commercial use only

Gurobi 7.5.2 (win32, Python) logging started 09/07/18 12:02:53

Academic license - for non-commercial use only

Gurobi 7.5.2 (win32, Python) logging started 09/07/18 12:05:09

Academic license - for non-commercial use only

Gurobi 7.5.2 (win32, Python) logging started 09/07/18 12:07:32

Academic license - for non-commercial use only

Gurobi 7.5.2 (win32, Python) logging started 09/07/18 12:07:55

Academic license - for non-commercial use only

Gurobi 7.5.2 (win32, Python) logging started 09/07/18 12:10:04

Academic license - for non-commercial use only

Gurobi 7.5.2 (win32, Python) logging started 09/07/18 12:11:08

Academic license - for non-commercial use only

Gurobi 7.5.2 (win32, Python) logging started 09/07/18 12:11:49

Academic license - for non-commercial use only

Gurobi 7.5.2 (win32, Python) logging started 09/07/18 12:14:23

Academic license - for non-commercial use only

Gurobi 7.5.2 (win32, Python) logging started 09/07/18 12:17:21

Academic license - for non-commercial use only

Gurobi 7.5.2 (win32, Python) logging started 09/07/18 12:17:39

Academic license - for non-commercial use only

Gurobi 7.5.2 (win32, Python) logging started 09/07/18 12:17:59

Academic license - for non-commercial use only

Gurobi 7.5.2 (win32, Python) logging started 09/07/18 12:18:12

Academic license - for non-commercial use only

Gurobi 7.5.2 (win32, Python) logging started 09/07/18 12:28:04

Academic license - for non-commercial use only

Gurobi 7.5.2 (win32, Python) logging started 09/07/18 12:30:25

Academic license - for non-commercial use only

Gurobi 7.5.2 (win32, Python) logging started 09/07/18 12:36:01

Academic license - for non-commercial use only

Gurobi 7.5.2 (win32, Python) logging started 09/07/18 12:39:27

Academic license - for non-commercial use only
